p cnf 7230 17
-2090 -2091 0
-92 -1868 2083 0
-588 -1960 -2088 0
588 -2089 0
2088 2089 0
2086 2087 0
1530 -2087 0
-1530 -2086 0
2084 2085 0
1528 -2085 0
-1528 -2084 0
1960 -2089 0
-590 -1962 2091 0
2082 -2083 0
-2082 2083 0
1962 -2091 0
590 -2091 0
